Route 1: 31 27 21 40 26 12 3 50 1 28
Route 2: 18 45 5 6 37 2 13
Route 3: 48 47 11 49 19 46 7
Route 4: 39 23 22 4 25
Route 5: 33 20 30 9 35 34 29
Route 6: 42 14 44 38 16 17
Route 7: 36 8 10 32
Route 8: 43 15 41 24
Vehicles: 8
Distance: 944.65
